1
1000
60
495 1
493 1
492 1
492 1
481 1
470 1
450 1
447 1
409 1
399 1
398 1
396 1
395 1
392 1
391 1
389 1
385 1
381 1
378 1
372 1
370 1
369 1
352 1
352 1
336 1
331 1
331 1
327 1
323 1
313 1
313 1
307 1
296 1
295 1
288 1
284 1
284 1
283 1
280 1
278 1
278 1
270 1
268 1
268 1
267 1
266 1
266 1
258 1
257 1
256 1
256 1
255 1
253 1
253 1
253 1
253 1
252 1
252 1
251 1
251 1
